4
4
40
1 1.3 1.55 1.75 2.1
47 43 44 32 8 49 6 43 32 13 14 22 46 21 32 27 36 25 7 23 20 12 23 38 9 8 8 19 36 23 47 19 6 10 27 22 35 47 10 40 24 35 13 15 11 25 36 13 32 34 42 11 38 17 14 37 44 10 19 49 14 43 27 24 9 28 48 39 24 39 37 16 39 44 15 35 46 8 9 36 18 9 41 16 19 16 13 44 10 23 41 37 34 42 10 34 35 37 45 38 43 22 20 15 15 49 6 31 38 28 14 32 42 8 7 6 40 9 24 20 40 37 8 30 35 5 34 32 22 15 37 43 5 21 11 41 36 36 19 40 15 18 49 11 24 13 41 23 41 19 19 35 39 34 13 36 21 26 45 23 